(declare-fun temp810_2 () (_ BitVec 64))
(declare-fun temp810_1 () (_ BitVec 64))
(declare-fun temp810_3 () (_ BitVec 64))
(declare-fun var2166536 () (_ BitVec 64))
(declare-fun temp810_5 () (_ BitVec 64))
(declare-fun temp810_4 () (_ BitVec 64))
(declare-fun temp810_6 () (_ BitVec 64))
(declare-fun var4659636 () (_ BitVec 64))
(declare-fun temp810_7 () (_ BitVec 64))
(declare-fun var5703478 () (_ BitVec 64))
(declare-fun var5902556 () (_ BitVec 64))
(declare-fun temp810_8 () (_ BitVec 64))
(declare-fun var6686699 () (_ BitVec 64))
(declare-fun ARGNAME_input_NAMEEND_DIM () (_ BitVec 64))
(declare-fun temp810_10 () (_ BitVec 64))
(declare-fun temp810_9 () (_ BitVec 64))
(declare-fun var6753143 () (_ BitVec 64))
(declare-fun temp810_11 () (_ BitVec 64))
(declare-fun var6819592 () (_ BitVec 64))
(declare-fun var6885137 () (_ BitVec 64))
(declare-fun temp810_13 () (_ BitVec 64))
(declare-fun temp810_12 () (_ BitVec 64))
(declare-fun temp810_14 () (_ BitVec 64))
(declare-fun var7081719 () (_ BitVec 64))
(declare-fun temp810_15 () (_ BitVec 64))
(declare-fun var6686760 () (_ BitVec 64))
(declare-fun var6686802 () (_ BitVec 64))
(declare-fun temp810_17 () (_ BitVec 64))
(declare-fun temp810_16 () (_ BitVec 64))
(declare-fun temp810_18 () (_ BitVec 64))
(declare-fun var7539704 () (_ BitVec 64))
(declare-fun var6686747 () (_ BitVec 64))
(declare-fun var6686746 () (_ BitVec 64))
(declare-fun temp810_19 () (_ BitVec 64))
(declare-fun var6686751 () (_ BitVec 64))
(declare-fun temp810_20 () (_ BitVec 64))
(declare-fun var6686753 () (_ BitVec 64))
(declare-fun temp810_21 () (_ BitVec 64))
(declare-fun temp810_22 () (_ BitVec 64))
(declare-fun var8718542 () (_ BitVec 64))
(declare-fun temp810_23 () (_ BitVec 64))
(declare-fun var8718619 () (_ BitVec 64))
(declare-fun var8718540 () (_ BitVec 64))
(declare-fun var204433 () (_ BitVec 64))
(declare-fun var204435 () (_ BitVec 64))
(declare-fun var10362591 () (_ BitVec 64))
(declare-fun temp810_25 () (_ BitVec 64))
(declare-fun temp810_24 () (_ BitVec 64))
(assert (= temp810_2 #x0000000000000000))
(assert (= temp810_1 temp810_2))
(assert (= temp810_3 #x0000000000000005))
(assert (= var2166536 temp810_3))
(assert (= temp810_5 #x0000000000000000))
(assert (= temp810_4 temp810_5))
(assert (= temp810_6 #x0000000000000000))
(assert (= var4659636 temp810_6))
(assert (= temp810_7 #x0000000000000000))
(assert (= var5703478 temp810_7))
(assert (= var5902556 var5703478))
(assert (= temp810_8 #x0000000000000001))
(assert (= var6686699 (bvshl ARGNAME_input_NAMEEND_DIM temp810_8)))
(assert (= temp810_10 #x0000000000000000))
(assert (= temp810_9 temp810_10))
(assert (= var6753143 var6686699))
(assert (= temp810_11 #x0000000000000005))
(assert (= var6819592 temp810_11))
(assert (= var6885137 var6753143))
(assert (= temp810_13 #x0000000000000000))
(assert (= temp810_12 temp810_13))
(assert (= temp810_14 #x0000000000000000))
(assert (= var7081719 temp810_14))
(assert (= temp810_15 #x0000000000000000))
(assert (= var6686760 temp810_15))
(assert (= var6686802 var6686760))
(assert (= temp810_17 #x0000000000000000))
(assert (= temp810_16 temp810_17))
(assert (= temp810_18 #x0000000000000001))
(assert (= var7539704 temp810_18))
(assert (= var6686747 var6686802))
(assert (= var6686746 var6686747))
(assert (= temp810_19 #x0000000000000001))
(assert (= var6686751 (bvand var6686746 temp810_19)))
(assert (= temp810_20 #x0000000000000000))
(assert (= var6686753
   (ite (= var6686751 temp810_20) #x0000000000000001 #x0000000000000000)))
(assert (= temp810_21 #x0000000000000001))
(assert (= var6686753 temp810_21))
(assert (= temp810_22 #x0000000000000001))
(assert (= var8718542 temp810_22))
(assert (= temp810_23 #x0000000000000001))
(assert (= var8718619 temp810_23))
(assert (= var8718540 var8718619))
(assert (= var204433 var8718540))
(assert (= var204435 var204433))
(assert (= var10362591 var204435))
(assert (= temp810_25 #x0000000000000005))
(assert (= temp810_24 temp810_25))
(model-add temp810_2 () (_ BitVec 64) #x0000000000000000)
(model-add temp810_1 () (_ BitVec 64) #x0000000000000000)
(model-add temp810_3 () (_ BitVec 64) #x0000000000000005)
(model-add var2166536 () (_ BitVec 64) #x0000000000000005)
(model-add temp810_5 () (_ BitVec 64) #x0000000000000000)
(model-add temp810_4 () (_ BitVec 64) #x0000000000000000)
(model-add temp810_6 () (_ BitVec 64) #x0000000000000000)
(model-add var4659636 () (_ BitVec 64) #x0000000000000000)
(model-add temp810_7 () (_ BitVec 64) #x0000000000000000)
(model-add var5703478 () (_ BitVec 64) #x0000000000000000)
(model-add var5902556 () (_ BitVec 64) #x0000000000000000)
(model-add temp810_8 () (_ BitVec 64) #x0000000000000001)
(model-add var6686699
           ()
           (_ BitVec 64)
           (concat ((_ extract 62 0) ARGNAME_input_NAMEEND_DIM) #b0))
(model-add temp810_10 () (_ BitVec 64) #x0000000000000000)
(model-add temp810_9 () (_ BitVec 64) #x0000000000000000)
(model-add var6753143
           ()
           (_ BitVec 64)
           (concat ((_ extract 62 0) ARGNAME_input_NAMEEND_DIM) #b0))
(model-add temp810_11 () (_ BitVec 64) #x0000000000000005)
(model-add var6819592 () (_ BitVec 64) #x0000000000000005)
(model-add var6885137
           ()
           (_ BitVec 64)
           (concat ((_ extract 62 0) ARGNAME_input_NAMEEND_DIM) #b0))
(model-add temp810_13 () (_ BitVec 64) #x0000000000000000)
(model-add temp810_12 () (_ BitVec 64) #x0000000000000000)
(model-add temp810_14 () (_ BitVec 64) #x0000000000000000)
(model-add var7081719 () (_ BitVec 64) #x0000000000000000)
(model-add temp810_15 () (_ BitVec 64) #x0000000000000000)
(model-add var6686760 () (_ BitVec 64) #x0000000000000000)
(model-add var6686802 () (_ BitVec 64) #x0000000000000000)
(model-add temp810_17 () (_ BitVec 64) #x0000000000000000)
(model-add temp810_16 () (_ BitVec 64) #x0000000000000000)
(model-add temp810_18 () (_ BitVec 64) #x0000000000000001)
(model-add var7539704 () (_ BitVec 64) #x0000000000000001)
(model-add var6686747 () (_ BitVec 64) #x0000000000000000)
(model-add var6686746 () (_ BitVec 64) #x0000000000000000)
(model-add temp810_19 () (_ BitVec 64) #x0000000000000001)
(model-add var6686751 () (_ BitVec 64) #x0000000000000000)
(model-add temp810_20 () (_ BitVec 64) #x0000000000000000)
(model-add var6686753 () (_ BitVec 64) #x0000000000000001)
(model-add temp810_21 () (_ BitVec 64) #x0000000000000001)





